100
128
24
32
43
29
4
29
24
27
24
6
34
55
8
35
19
42
17
23
48
58
2
37
2
28
50
58
32
60
47
14
50
21
34
47
58
13
16
20
13
48
20
14
21
6
60
55
1
17
44
43
40
2
37
4
41
30
29
17
24
40
37
16
19
1
15
17
40
38
28
20
42
20
21
15
1
45
1
36
26
18
47
19
55
30
56
40
29
4
24
2
39
47
58
46
8
21
21
24
62
63